c Reduced graph for myciel5g generated by Cyril Grelier
p edge 47 236
e 1 3
e 1 4
e 1 12
e 1 15
e 1 18
e 1 21
e 1 22
e 1 26
e 1 32
e 1 37
e 1 39
e 1 42
e 2 5
e 2 8
e 2 15
e 2 21
e 2 27
e 2 34
e 2 35
e 2 37
e 2 38
e 2 40
e 2 42
e 2 46
e 3 11
e 3 13
e 3 16
e 3 23
e 3 24
e 3 31
e 3 34
e 3 40
e 3 45
e 4 7
e 4 11
e 4 14
e 4 24
e 4 27
e 4 31
e 4 34
e 4 35
e 4 40
e 5 11
e 5 13
e 5 16
e 5 17
e 5 22
e 5 23
e 5 24
e 5 26
e 5 45
e 6 11
e 6 13
e 6 16
e 6 21
e 6 22
e 6 24
e 6 26
e 6 37
e 7 10
e 7 13
e 7 15
e 7 21
e 7 22
e 7 25
e 8 10
e 8 11
e 8 13
e 8 22
e 8 23
e 9 10
e 9 11
e 9 12
e 9 21
e 9 35
e 10 16
e 10 17
e 10 18
e 10 19
e 10 20
e 10 24
e 10 26
e 10 27
e 10 30
e 10 31
e 10 32
e 10 33
e 10 37
e 10 39
e 10 40
e 10 42
e 10 43
e 10 45
e 10 46
e 10 47
e 11 15
e 11 18
e 11 19
e 11 20
e 11 25
e 11 28
e 11 29
e 11 32
e 11 33
e 11 38
e 11 41
e 11 42
e 11 43
e 11 44
e 11 46
e 11 47
e 12 13
e 12 16
e 12 19
e 12 23
e 12 25
e 12 29
e 12 31
e 12 34
e 12 38
e 12 40
e 12 43
e 12 44
e 12 45
e 12 46
e 13 14
e 13 18
e 13 20
e 13 27
e 13 28
e 13 30
e 13 35
e 13 36
e 13 39
e 13 47
e 14 15
e 14 16
e 14 19
e 14 21
e 14 22
e 14 25
e 14 26
e 14 32
e 14 37
e 14 42
e 15 17
e 15 23
e 15 24
e 15 30
e 15 31
e 15 36
e 15 45
e 16 28
e 16 35
e 16 36
e 17 21
e 17 34
e 17 35
e 17 38
e 18 23
e 18 34
e 19 35
e 19 36
e 20 21
e 20 22
e 21 23
e 21 28
e 21 29
e 21 30
e 21 31
e 21 33
e 21 36
e 21 41
e 21 43
e 21 44
e 21 45
e 21 47
e 22 27
e 22 29
e 22 31
e 22 34
e 22 35
e 22 38
e 22 40
e 22 43
e 22 46
e 23 27
e 23 35
e 23 37
e 23 39
e 23 42
e 24 25
e 24 28
e 24 29
e 24 38
e 24 41
e 24 44
e 25 27
e 25 30
e 25 35
e 25 36
e 25 39
e 26 29
e 26 34
e 26 35
e 26 38
e 27 41
e 27 44
e 28 34
e 28 37
e 28 40
e 29 37
e 29 39
e 30 34
e 30 38
e 32 34
e 32 35
e 33 34
e 33 35
e 34 36
e 34 39
e 34 41
e 34 47
e 35 41
e 35 44
e 35 45
e 36 37
e 36 38
e 36 40
e 36 42
e 36 46
e 37 41
e 37 44
e 38 39
e 39 44
e 40 41
